HUN,8,6,686
3,22,4,21,1,23,5,26,0,23,2,30
4,22,3,21,5,24,1,30,0,30,2,23
1,22,2,26,3,22,5,22,4,25,0,26
5,21,1,23,2,28,4,27,0,24,3,27
1,25,5,26,2,27,4,21,3,30,0,27
5,25,2,30,1,21,0,21,3,22,4,28
2,28,0,30,4,22,3,22,1,29,5,30
1,28,4,28,3,26,5,21,0,23,2,30
